Route #1: 30 85 11 79
Route #2: 93 75
Route #3: 5 12 58
Route #4: 20 41 22 15
Route #5: 54 70 1
Route #6: 80 94 56 21
Route #7: 25 65 78 42 28
Route #8: 63 77 3
Route #9: 66 84 90 68
Route #10: 83 51 81
Route #11: 82 60 59
Route #12: 27 97 19
Route #13: 31 46 35
Route #14: 14 49 6 37 87
Route #15: 7 2 45 43 29 36 72 57
Route #16: 4 13 74
Route #17: 32 33 53 73 95 24
Route #18: 100 61 23
Route #19: 38 47 26 48 96 64 34
Route #20: 39 10 18
Route #21: 40 88 67 44
Route #22: 69 16 55 76
Route #23: 86 9 92
Route #24: 17 8
Route #25: 71 62 99 98 89
Route #26: 50 91 52
Cost 27591.0000
Time 16.0003